
  32    4
  10   10   10   10

   0   0   0   0   0   1 2 
   4   1   0   1   1   1 3 
   8   0   1   1   6   1 4 
   5   7   4   0   5   1 5 
   5   5   0   4   2   1 6 
   3   4   0   5   1   1 7 
   5   4   0   3   8   2 31 8 
   7   0   3   3   1   2 30 9 
   3   4   0   6   4   1 10 
   2   4   0   3   4   1 11 
   2   2   0   7   3   1 12 
   3   7   4   0   6   1 13 
   4   2   0   6   4   1 14 
   7   0   2   5   5   1 15 
   2   2   0   1   4   1 16 
   5   9   4   0   5   1 17 
  10   6   3   4   0   1 18 
   8   3   0   4   4   2 29 19 
   6   4   3   5   0   1 20 
   2   1   7   4   0   1 21 
   2   2   3   0   6   1 22 
   5   3   2   0   2   1 23 
   7   4   5   0   4   1 24 
   3   0   5   5   3   1 25 
   1   5   6   0   5   1 26 
   3   7   0   6   5   1 27 
   6   1   3   0   3   1 28 
   5   3   5   3   0   1 32
   6   5   0   3   3   1 32
   6   7   0   5   7   1 32
   7   2   8   0   3   1 32
   0   0   0   0   0   0 
